WARNING: for repeatability, setting FPU to use double precision
 -----------------------------------------------------------------------------------------------------------------------
|                                 manysat2.0    4 thread(s) on 8 core(s)                                                |
 -----------------------------------------------------------------------------------------------------------------------
 ===============================================[ Problem Statistics ]==================================================
|                                                                                                                       |
|  Number of cores:                 4                                                                                   |
|  Number of variables:        117296                                                                                   |
|  Number of clauses:          876152                                                                                   |
|  Parse time:                   0.36 s                                                                                 |
|                                                                                                                       |
 ==============================================[ Search Statistics ]====================================================
|   Thread  | Conflicts |          ORIGINAL         |          LEARNT          |  exported  / imported      |  Progress |
|    (id)   |           |    Vars  Clauses Literals |    Limit  Clauses Lit/Cl |  (clauses by restart)      |           |
 =======================================================================================================================
|         1 |       100 |  116456   875810  3558217 |   321255      291      6 |         841  -         191 |  0.716 %  |
|         2 |       100 |  116456   875810  3558217 |   321255      325      6 |         841  -         225 |  0.716 %  |
|         0 |       100 |  116456   875810  3558217 |   321130      396      6 |         841  -         296 |  0.716 %  |
|         3 |       100 |  116303   875810  3558217 |   321255      488      6 |           0  -         389 |  0.847 %  |
|         2 |       250 |  116303   875810  3558217 |   353381      679      7 |        1835  -         429 |  0.847 %  |
|         0 |       250 |  116301   875810  3558217 |   353243      802      6 |         841  -         554 |  0.848 %  |
|         3 |       250 |  116301   875810  3558217 |   353381      967      6 |         995  -         718 |  0.848 %  |
|         1 |       250 |  116301   875810  3558217 |   353381     1209      6 |        1836  -         959 |  0.848 %  |
|         0 |       475 |  116301   875810  3558217 |   388567     1352      6 |         841  -         879 |  0.848 %  |
|         2 |       475 |  116301   875810  3558217 |   388719     1434      6 |        1836  -         959 |  0.848 %  |
|         0 |       812 |  116301   875810  3558217 |   427424     1878      8 |         841  -        1068 |  0.848 %  |
|         2 |       812 |  116301   875810  3558217 |   427591     2021      9 |        1836  -        1209 |  0.848 %  |
|         3 |       475 |  116301   875810  3558217 |   388719     1934      7 |         995  -        1460 |  0.848 %  |
|         1 |       475 |  116300   875810  3558217 |   388719     2294      7 |        1837  -        1819 |  0.849 %  |
|         2 |      1318 |  116298   875810  3558217 |   470350     2917     10 |        2835  -        1598 |  0.851 %  |
|         3 |       812 |  116298   875810  3558217 |   427591     2840      8 |        1994  -        2029 |  0.851 %  |
|         0 |      1318 |  116298   875810  3558217 |   470166     3112      9 |        1839  -        1797 |  0.851 %  |
|         2 |      2077 |  116297   875810  3558217 |   517385     4221     11 |        2838  -        2143 |  0.852 %  |
|         1 |       812 |  116297   875810  3558217 |   427591     3641      8 |        1840  -        2831 |  0.852 %  |
|         3 |      1318 |  116297   875810  3558217 |   470350     3980     11 |        1997  -        2663 |  0.852 %  |
|         0 |      2077 |  116297   875810  3558217 |   517183     4676     12 |        1839  -        2603 |  0.852 %  |
|         1 |      1318 |  116296   875810  3558217 |   470350     5423      9 |        2840  -        4107 |  0.853 %  |
|         0 |      3216 |  116296   875810  3558217 |   568901     6407     12 |        2839  -        3195 |  0.853 %  |
|         2 |      3216 |  116295   875810  3558217 |   569124     6581     12 |        2998  -        3365 |  0.853 %  |
|         3 |      2077 |  116295   875810  3558217 |   517385     6018     11 |        2997  -        3943 |  0.853 %  |
|         1 |      2077 |  116295   875810  3558217 |   517385     6953     11 |        3000  -        4878 |  0.853 %  |
|         0 |      4924 |  116295   856474  3471314 |   625792     9105     14 |        2999  -        4189 |  0.853 %  |
|         3 |      3216 |  116295   856474  3471314 |   569124     8289     12 |        2997  -        5079 |  0.853 %  |
|         1 |      3216 |  116295   856474  3471314 |   569124     9049     16 |        3001  -        5839 |  0.853 %  |
|         2 |      4924 |  116294   856474  3471314 |   626036    10061     14 |        2999  -        5141 |  0.854 %  |
|         3 |      4924 |  116294   856474  3471314 |   626036    11545     14 |        2997  -        6628 |  0.854 %  |
|         0 |      7486 |  116294   856474  3471314 |   688371    13196     17 |        3000  -        5718 |  0.854 %  |
|         1 |      4924 |  116294   856474  3471314 |   626036    12119     19 |        3001  -        7201 |  0.854 %  |
|         2 |      7486 |  116294   854098  3460568 |   688640    14794     18 |        2999  -        7312 |  0.854 %  |
|         3 |      7486 |  116294   854098  3460568 |   688640    15237     18 |        2997  -        7758 |  0.854 %  |
|         1 |      7486 |  116294   854098  3460568 |   688640    16002     23 |        3001  -        8522 |  0.854 %  |
|         0 |     11330 |  116294   854098  3460568 |   757208    19753     20 |        3000  -        8431 |  0.854 %  |
|         2 |     11330 |  116294   854098  3460568 |   757504    20638     23 |        2999  -        9312 |  0.854 %  |
|         3 |     11330 |  116293   851714  3449760 |   757504    21334     21 |        3000  -       10011 |  0.855 %  |
|         1 |     11330 |  116293   851714  3449760 |   757504    21698     26 |        3004  -       10374 |  0.855 %  |
|         0 |     17096 |  116293   851714  3449760 |   832929    28396     23 |        3003  -       11308 |  0.855 %  |
|         2 |     17096 |  116293   851714  3449760 |   833254    29083     25 |        2999  -       11992 |  0.855 %  |
|         3 |     17096 |  116293   851714  3449760 |   833254    30107     25 |        3000  -       13018 |  0.855 %  |
|         1 |     17096 |  116292   849344  3439060 |   833254    31801     27 |        3004  -       14712 |  0.856 %  |
|         0 |     25745 |  116292   849344  3439060 |   916222    40127     25 |        3009  -       14390 |  0.856 %  |
|         2 |     25745 |  116292   849344  3439060 |   916580    41390     29 |        3005  -       15650 |  0.856 %  |
|         3 |     25745 |  116292   849344  3439060 |   916580    42060     28 |        3006  -       16322 |  0.856 %  |
|         1 |     25745 |  116292   849344  3439060 |   916580    44090     31 |        3004  -       18352 |  0.856 %  |
|         0 |     38719 |  116292   849344  3439060 |  1007844    57867     29 |        3009  -       19156 |  0.856 %  |
|         3 |     38719 |  116292   849344  3439060 |  1008238    59202     32 |        3006  -       20490 |  0.856 %  |
|         2 |     38719 |  116292   849344  3439060 |  1008238    58773     31 |        3005  -       20059 |  0.856 %  |
|         1 |     38719 |  116292   849344  3439060 |  1008238    61658     34 |        3004  -       22946 |  0.856 %  |
|         2 |     58180 |  116292   849344  3439060 |  1109061    81797     37 | WARNING: for repeatability, setting FPU to use double precision
 -----------------------------------------------------------------------------------------------------------------------
|                                 manysat2.0    4 thread(s) on 8 core(s)                                                |
 -----------------------------------------------------------------------------------------------------------------------
 ===============================================[ Problem Statistics ]==================================================
|                                                                                                                       |
|  Number of cores:                 4                                                                                   |
|  Number of variables:        117296                                                                                   |
|  Number of clauses:          876152                                                                                   |
|  Parse time:                   0.34 s                                                                                 |
|                                                                                                                       |
 ==============================================[ Search Statistics ]====================================================
|   Thread  | Conflicts |          ORIGINAL         |          LEARNT          |  exported  / imported      |  Progress |
|    (id)   |           |    Vars  Clauses Literals |    Limit  Clauses Lit/Cl |  (clauses by restart)      |           |
 =======================================================================================================================
|         0 |       100 |  116456   875810  3558217 |   321130      240      6 |        2676  -         140 |  0.716 %  |
|         2 |       100 |  116302   875810  3558217 |   321255      291      5 |        1835  -         192 |  0.847 %  |
|         2 |       250 |  116300   875810  3558217 |   353381      505      8 |        1835  -         256 |  0.849 %  |
|         3 |       100 |  116300   875810  3558217 |   321255      484      5 |        1682  -         386 |  0.849 %  |
|         1 |       100 |  116301   875810  3558217 |   321255      603      6 |        1835  -         504 |  0.848 %  |
|         2 |       475 |  116300   875810  3558217 |   388719      841      9 |        1838  -         367 |  0.849 %  |
|         0 |       250 |  116299   875810  3558217 |   353243      910      6 |        2679  -         660 |  0.850 %  |
|         3 |       250 |  116299   875810  3558217 |   353381      982      6 |        1682  -         735 |  0.850 %  |
|         2 |       812 |  116297   875810  3558217 |   427591     1437      9 |        2837  -         626 |  0.852 %  |
|         1 |       250 |  116296   875810  3558217 |   353381     1579      6 |        2837  -        1331 |  0.853 %  |
|         0 |       475 |  116296   875810  3558217 |   388567     1648      6 |        2836  -        1174 |  0.853 %  |
|         3 |       475 |  116296   875810  3558217 |   388719     1662      7 |        2836  -        1191 |  0.853 %  |
|         3 |       812 |  116296   875810  3558217 |   427591     2237      8 |        2836  -        1429 |  0.853 %  |
|         2 |      1318 |  116296   875810  3558217 |   470350     2677      9 |        2993  -        1360 |  0.853 %  |
|         0 |       812 |  116156   875810  3558217 |   427424     2496      7 |        2840  -        1685 |  0.972 %  |
|         1 |       475 |  116156   875810  3558217 |   388719     2508      8 |        2837  -        2036 |  0.972 %  |
|         1 |       812 |  116155   875810  3558217 |   427591     3170      8 |        2980  -        2361 |  0.973 %  |
|         0 |      1318 |  116155   875810  3558217 |   470166     3446      8 |        2840  -        2130 |  0.973 %  |
|         3 |      1318 |  116155   875810  3558217 |   470350     3854      8 |        2983  -        2540 |  0.973 %  |
|         2 |      2077 |  116155   875810  3558217 |   517385     4539     11 |        3140  -        2463 |  0.973 %  |
|         0 |      2077 |  116155   875810  3558217 |   517183     5021     10 |        2840  -        2946 |  0.973 %  |
|         1 |      1318 |  116154   875810  3558217 |   470350     4843      9 |        3281  -        3528 |  0.974 %  |
|         2 |      3216 |  116154   875810  3558217 |   569124     6284     13 |        3140  -        3070 |  0.974 %  |
|         1 |      2077 |  116154   853804  3459758 |   517385     6100     12 |        3281  -        4058 |  0.974 %  |
|         0 |      3216 |  116154   853804  3459758 |   568901     6785     14 |        3141  -        3603 |  0.974 %  |
|         3 |      2077 |  116154   853804  3459758 |   517385     6215     10 |        3284  -        4175 |  0.974 %  |
|         1 |      3216 |  116154   853804  3459758 |   569124     7702     17 |        3281  -        4521 |  0.974 %  |
|         3 |      3216 |  116153   853804  3459758 |   569124     8328     11 |        3426  -        5149 |  0.974 %  |
|         0 |      4924 |  116153   853804  3459758 |   625792    10011     16 |        3283  -        5121 |  0.974 %  |
|         2 |      4924 |  116153   853804  3459758 |   626036     9968     15 |        3282  -        5078 |  0.974 %  |
|         1 |      4924 |  116153   853804  3459758 |   626036    10641     18 |        3281  -        5753 |  0.974 %  |
|         3 |      4924 |  116153   853804  3459758 |   626036    11334     14 |        3426  -        6447 |  0.974 %  |
|         1 |      7486 |  116153   851437  3449082 |   688640    14188     21 |        3281  -        6738 |  0.974 %  |
|         2 |      7486 |  116153   851437  3449082 |   688640    14455     19 |        3282  -        7003 |  0.974 %  |
|         0 |      7486 |  116153   851437  3449082 |   688371    14606     20 |        3283  -        7154 |  0.974 %  |
|         3 |      7486 |  116153   851437  3449082 |   688640    15866     19 |        3426  -        8417 |  0.974 %  |
|         1 |     11330 |  116153   851437  3449082 |   757504    20108     23 |        3281  -        8814 |  0.974 %  |
|         2 |     11330 |  116153   851437  3449082 |   757504    20329     21 |        3282  -        9033 |  0.974 %  |
|         0 |     11330 |  116153   851437  3449082 |   757208    20918     21 |        3283  -        9622 |  0.974 %  |
|         3 |     11330 |  116153   851437  3449082 |   757504    22206     22 |        3426  -       10913 |  0.974 %  |
|         0 |     17096 |  116152   849070  3438406 |   832929    28410     24 |        3284  -       11348 |  0.975 %  |
|         1 |     17096 |  116152   849070  3438406 |   833254    29742     26 |        3281  -       12683 |  0.975 %  |
|         2 |     17096 |  116152   849070  3438406 |   833254    29962     25 |        3283  -       12900 |  0.975 %  |
|         3 |     17096 |  116152   849070  3438406 |   833254    30762     27 |        3427  -       13703 |  0.975 %  |
|         0 |     25745 |  116152   849070  3438406 |   916222    40679     26 |        3284  -       14968 |  0.975 %  |
|         3 |     25745 |  116152   849070  3438406 |   916580    42454     33 |        3427  -       16746 |  0.975 %  |
|         1 |     25745 |  116152   849070  3438406 |   916580    42376     29 |        3281  -       16668 |  0.975 %  |
|         2 |     25745 |  116152   849070  3438406 |   916580    43512     28 |        3283  -       17801 |  0.975 %  |
|         0 |     38719 |  116152   849070  3438406 |  1007844    58422     30 |        3284  -       19737 |  0.975 %  |
|         1 |     38719 |  116152   849070  3438406 |  1008238    58898     32 |        3281  -       20216 |  0.975 %  |
|         3 |     38719 |  116152   849070  3438406 |  1008238    60368     35 |        3427  -       21686 |  0.975 %  |
|         2 |     38719 |  116152   849070  3438406 |  1008238    60654     34 |        3283  -       21969 |  0.975 %  |
|         0 |     58180 |  116152   849070  3438406 |  1108629    83692     34 | 